c Generated map
c Size: 9 * 9, weights in range: 1 to 10, walls: True, with ratio 0.05
c dim 6 of 8
c
p sp 81 131
c graph contains 81 nodes and 131 arcs
c
a 1 10 5
a 10 1 5
a 1 2 6
a 2 1 6
a 2 11 1
a 11 2 1
a 2 3 10
a 3 2 10
a 3 12 10
a 12 3 10
a 3 4 4
a 4 3 4
a 4 13 4
a 13 4 4
a 4 5 8
a 5 4 8
a 5 14 2
a 14 5 2
a 5 6 9
a 6 5 9
a 6 15 3
a 15 6 3
a 6 7 8
a 7 6 8
a 7 8 2
a 8 7 2
a 8 17 5
a 17 8 5
a 10 19 4
a 19 10 4
a 10 11 1
a 11 10 1
a 11 20 1
a 20 11 1
a 11 12 7
a 12 11 7
a 12 21 3
a 21 12 3
a 12 13 10
a 13 12 10
a 13 22 3
a 22 13 3
a 13 14 7
a 14 13 7
a 14 23 3
a 23 14 3
a 14 15 5
a 15 14 5
a 15 24 8
a 24 15 8
a 17 26 9
a 26 17 9
a 17 18 6
a 18 17 6
a 18 27 5
a 27 18 5
a 19 28 3
a 28 19 3
a 19 20 6
a 20 19 6
a 20 29 10
a 29 20 10
a 20 21 5
a 21 20 5
a 21 30 6
a 30 21 6
a 21 22 2
a 22 21 2
a 22 31 8
a 31 22 8
a 22 23 1
a 23 22 1
a 23 32 8
a 32 23 8
a 23 24 1
a 24 23 1
a 24 33 4
a 33 24 4
a 24 25 7
a 25 24 7
a 25 34 1
a 34 25 1
a 25 26 9
a 26 25 9
a 26 35 8
a 35 26 8
a 26 27 2
a 27 26 2
a 27 36 2
a 36 27 2
a 28 37 6
a 37 28 6
a 28 29 5
a 29 28 5
a 29 38 9
a 38 29 9
a 29 30 4
a 30 29 4
a 30 39 3
a 39 30 3
a 30 31 5
a 31 30 5
a 31 40 1
a 40 31 1
a 31 32 1
a 32 31 1
a 32 41 7
a 41 32 7
a 32 33 3
a 33 32 3
a 33 42 3
a 42 33 3
a 33 34 3
a 34 33 3
a 34 43 3
a 43 34 3
a 34 35 3
a 35 34 3
a 35 44 9
a 44 35 9
a 35 36 4
a 36 35 4
a 36 45 3
a 45 36 3
a 37 46 9
a 46 37 9
a 37 38 7
a 38 37 7
a 38 47 10
a 47 38 10
a 38 39 1
a 39 38 1
a 39 48 8
a 48 39 8
a 39 40 2
a 40 39 2
a 40 49 7
a 49 40 7
a 40 41 3
a 41 40 3
a 41 50 5
a 50 41 5
a 41 42 10
a 42 41 10
a 42 51 10
a 51 42 10
a 42 43 1
a 43 42 1
a 43 52 10
a 52 43 10
a 43 44 10
a 44 43 10
a 44 53 6
a 53 44 6
a 44 45 2
a 45 44 2
a 45 54 3
a 54 45 3
a 46 55 7
a 55 46 7
a 46 47 2
a 47 46 2
a 47 56 5
a 56 47 5
a 47 48 5
a 48 47 5
a 48 57 8
a 57 48 8
a 48 49 1
a 49 48 1
a 49 58 3
a 58 49 3
a 49 50 6
a 50 49 6
a 50 59 4
a 59 50 4
a 50 51 3
a 51 50 3
a 51 60 2
a 60 51 2
a 51 52 5
a 52 51 5
a 52 61 6
a 61 52 6
a 52 53 4
a 53 52 4
a 53 62 9
a 62 53 9
a 53 54 1
a 54 53 1
a 55 64 9
a 64 55 9
a 55 56 10
a 56 55 10
a 56 65 8
a 65 56 8
a 56 57 8
a 57 56 8
a 57 66 3
a 66 57 3
a 57 58 8
a 58 57 8
a 58 67 10
a 67 58 10
a 58 59 8
a 59 58 8
a 59 68 4
a 68 59 4
a 59 60 6
a 60 59 6
a 60 69 1
a 69 60 1
a 60 61 8
a 61 60 8
a 61 62 3
a 62 61 3
a 62 71 7
a 71 62 7
a 64 73 10
a 73 64 10
a 64 65 7
a 65 64 7
a 65 74 5
a 74 65 5
a 65 66 7
a 66 65 7
a 66 75 1
a 75 66 1
a 66 67 3
a 67 66 3
a 67 76 9
a 76 67 9
a 67 68 1
a 68 67 1
a 68 77 5
a 77 68 5
a 68 69 4
a 69 68 4
a 69 78 4
a 78 69 4
a 71 80 10
a 80 71 10
a 71 72 7
a 72 71 7
a 72 81 5
a 81 72 5
a 73 74 5
a 74 73 5
a 74 75 3
a 75 74 3
a 75 76 8
a 76 75 8
a 76 77 6
a 77 76 6
a 77 78 3
a 78 77 3
a 78 79 3
a 79 78 3
a 79 80 10
a 80 79 10
a 80 81 8
a 81 80 8
